p edge 225 691
e 1 2
e 1 24
e 1 26
e 1 29
e 1 31
e 1 34
e 1 39
e 1 44
e 1 71
e 1 79
e 1 80
e 1 87
e 1 89
e 1 98
e 1 118
e 2 26
e 2 29
e 2 34
e 2 49
e 2 62
e 2 66
e 2 75
e 2 80
e 2 82
e 2 86
e 2 114
e 2 117
e 2 132
e 2 135
e 2 177
e 2 203
e 3 6
e 3 7
e 3 26
e 3 29
e 3 56
e 3 57
e 3 60
e 3 62
e 3 69
e 3 90
e 3 111
e 3 115
e 3 135
e 3 147
e 4 19
e 4 56
e 4 62
e 4 63
e 4 74
e 4 85
e 4 103
e 4 195
e 5 8
e 5 9
e 5 10
e 5 25
e 5 41
e 5 42
e 5 45
e 5 58
e 5 124
e 5 157
e 6 23
e 6 32
e 6 36
e 6 56
e 6 60
e 6 61
e 6 69
e 6 72
e 6 73
e 6 74
e 6 82
e 6 114
e 6 115
e 6 134
e 6 156
e 6 171
e 7 10
e 7 11
e 7 15
e 7 50
e 7 51
e 7 57
e 7 59
e 7 64
e 7 73
e 7 112
e 7 118
e 7 121
e 7 165
e 8 9
e 8 10
e 8 41
e 8 44
e 8 52
e 8 58
e 8 169
e 9 10
e 9 17
e 9 28
e 9 41
e 9 51
e 9 52
e 9 55
e 9 58
e 9 75
e 9 163
e 9 166
e 10 15
e 10 28
e 10 38
e 10 41
e 10 50
e 10 55
e 10 58
e 10 121
e 10 167
e 10 170
e 11 24
e 11 29
e 11 31
e 11 32
e 11 34
e 11 40
e 11 64
e 11 118
e 11 121
e 12 16
e 12 20
e 12 30
e 12 52
e 12 60
e 12 67
e 12 73
e 12 75
e 12 76
e 12 110
e 12 115
e 13 33
e 13 36
e 13 38
e 13 47
e 13 69
e 13 84
e 13 91
e 13 104
e 13 106
e 13 194
e 13 197
e 14 16
e 14 35
e 14 54
e 14 82
e 14 92
e 14 101
e 14 103
e 14 149
e 14 159
e 14 162
e 14 192
e 14 221
e 15 21
e 15 28
e 15 29
e 15 47
e 15 49
e 15 50
e 15 51
e 15 58
e 15 81
e 15 112
e 15 120
e 15 121
e 15 196
e 16 43
e 16 54
e 16 142
e 16 160
e 16 162
e 16 192
e 16 201
e 16 209
e 17 19
e 17 28
e 17 38
e 17 55
e 17 68
e 17 98
e 17 122
e 17 132
e 17 145
e 17 147
e 17 152
e 17 166
e 18 101
e 18 110
e 18 120
e 18 131
e 19 28
e 19 42
e 19 57
e 19 62
e 19 103
e 19 111
e 19 122
e 19 152
e 20 24
e 20 30
e 20 33
e 20 49
e 20 67
e 20 72
e 20 74
e 20 115
e 21 27
e 21 29
e 21 41
e 21 140
e 21 152
e 22 24
e 22 43
e 22 46
e 22 59
e 22 66
e 22 86
e 22 100
e 22 129
e 22 154
e 22 218
e 23 25
e 23 32
e 23 36
e 23 39
e 23 40
e 23 61
e 23 72
e 23 73
e 23 79
e 23 82
e 23 83
e 23 116
e 23 133
e 24 29
e 24 31
e 24 33
e 24 34
e 24 41
e 24 59
e 24 74
e 24 79
e 24 119
e 24 124
e 24 129
e 24 158
e 24 179
e 24 218
e 25 45
e 25 59
e 25 93
e 25 94
e 26 29
e 26 34
e 26 57
e 26 62
e 26 69
e 26 80
e 26 107
e 26 117
e 26 167
e 26 220
e 27 41
e 27 49
e 27 79
e 27 102
e 27 134
e 27 143
e 28 55
e 28 58
e 28 64
e 28 81
e 28 118
e 28 122
e 28 132
e 28 166
e 29 34
e 29 55
e 29 80
e 29 141
e 29 147
e 30 52
e 30 60
e 30 67
e 30 110
e 30 115
e 31 39
e 31 74
e 31 88
e 32 34
e 32 36
e 32 63
e 32 82
e 32 131
e 32 144
e 32 149
e 32 199
e 33 52
e 33 61
e 33 74
e 33 84
e 33 123
e 33 128
e 33 194
e 33 197
e 33 204
e 34 40
e 34 79
e 34 80
e 34 86
e 35 83
e 35 149
e 35 159
e 35 191
e 35 221
e 36 82
e 36 88
e 36 150
e 36 177
e 36 216
e 36 217
e 37 42
e 37 65
e 37 75
e 37 77
e 37 81
e 37 111
e 37 142
e 37 165
e 38 69
e 38 85
e 38 98
e 38 126
e 38 145
e 38 167
e 38 170
e 39 40
e 39 58
e 39 71
e 39 87
e 39 107
e 39 126
e 39 133
e 40 65
e 40 67
e 40 121
e 40 133
e 41 58
e 41 75
e 41 76
e 41 124
e 41 134
e 42 77
e 42 138
e 43 54
e 43 62
e 43 66
e 43 86
e 43 142
e 43 153
e 43 192
e 43 201
e 43 209
e 44 55
e 44 99
e 44 118
e 44 148
e 44 151
e 45 95
e 45 113
e 45 127
e 46 100
e 46 114
e 46 139
e 46 154
e 46 156
e 46 223
e 47 49
e 47 50
e 47 51
e 47 96
e 47 101
e 47 106
e 47 113
e 47 141
e 47 176
e 47 196
e 48 87
e 48 96
e 48 99
e 48 121
e 48 136
e 48 148
e 49 50
e 49 72
e 49 79
e 49 102
e 49 134
e 49 196
e 50 98
e 50 121
e 50 122
e 50 196
e 50 202
e 51 52
e 51 112
e 51 113
e 51 141
e 51 176
e 51 196
e 52 61
e 52 110
e 52 197
e 52 204
e 53 77
e 53 78
e 53 92
e 53 130
e 53 139
e 53 150
e 53 188
e 53 225
e 54 56
e 54 62
e 54 88
e 54 103
e 54 153
e 54 162
e 54 191
e 54 192
e 55 65
e 55 68
e 55 132
e 55 141
e 55 170
e 56 60
e 56 69
e 56 74
e 56 85
e 56 88
e 56 115
e 56 191
e 57 62
e 57 73
e 57 207
e 58 81
e 58 107
e 58 124
e 59 93
e 59 94
e 59 129
e 59 155
e 59 165
e 59 218
e 60 69
e 60 73
e 60 75
e 60 76
e 60 114
e 60 115
e 60 156
e 60 224
e 61 72
e 61 73
e 61 85
e 61 102
e 61 197
e 61 204
e 62 103
e 62 153
e 63 139
e 63 144
e 63 188
e 63 199
e 64 118
e 64 119
e 64 132
e 65 75
e 65 120
e 65 170
e 66 70
e 66 86
e 66 114
e 66 162
e 67 115
e 67 133
e 67 180
e 67 181
e 68 97
e 68 132
e 68 205
e 69 107
e 69 115
e 69 167
e 70 77
e 70 112
e 71 89
e 71 96
e 71 126
e 71 161
e 72 73
e 72 116
e 73 75
e 73 76
e 73 116
e 75 76
e 75 163
e 76 106
e 76 108
e 76 115
e 77 92
e 77 130
e 77 139
e 77 150
e 77 188
e 78 149
e 78 208
e 79 88
e 79 102
e 79 116
e 79 134
e 80 107
e 80 117
e 81 111
e 81 125
e 81 138
e 82 86
e 82 103
e 82 137
e 82 177
e 82 203
e 83 109
e 84 128
e 84 143
e 84 171
e 84 174
e 84 180
e 84 181
e 84 194
e 85 102
e 85 123
e 85 126
e 85 178
e 86 137
e 86 177
e 86 203
e 87 98
e 88 150
e 88 191
e 89 96
e 90 125
e 90 135
e 90 172
e 90 182
e 91 93
e 91 94
e 91 101
e 91 104
e 91 155
e 91 200
e 91 222
e 92 95
e 92 129
e 92 150
e 93 94
e 93 110
e 93 129
e 94 110
e 94 129
e 95 113
e 95 127
e 95 129
e 97 125
e 97 168
e 97 205
e 97 211
e 98 122
e 98 145
e 98 202
e 99 121
e 99 130
e 99 136
e 99 148
e 99 199
e 100 151
e 100 154
e 100 187
e 100 198
e 101 113
e 101 200
e 102 134
e 103 153
e 104 147
e 104 155
e 104 222
e 105 127
e 105 173
e 106 108
e 106 219
e 107 167
e 109 150
e 109 190
e 111 152
e 112 127
e 113 127
e 114 156
e 116 145
e 117 140
e 118 132
e 119 158
e 119 179
e 121 136
e 122 202
e 122 214
e 123 126
e 123 128
e 123 158
e 123 178
e 124 174
e 125 168
e 126 178
e 129 218
e 130 139
e 130 161
e 130 188
e 131 149
e 132 135
e 133 180
e 133 181
e 133 210
e 134 171
e 135 141
e 136 148
e 136 176
e 137 146
e 137 160
e 139 188
e 141 176
e 142 165
e 142 173
e 142 201
e 143 169
e 143 171
e 143 174
e 143 180
e 143 181
e 144 199
e 146 160
e 146 215
e 149 159
e 149 208
e 151 154
e 151 198
e 153 192
e 154 198
e 155 222
e 158 179
e 162 192
e 163 186
e 164 175
e 167 170
e 171 174
e 171 180
e 171 181
e 174 180
e 174 181
e 177 203
e 178 184
e 178 206
e 179 193
e 180 181
e 183 190
e 184 185
e 184 206
e 185 213
e 189 200
e 189 212
e 197 204
e 200 212
e 201 209
e 216 217
